c 
p cnf 10 40
-6 8 10 -3 0
3 2 0
-9 0
9 0
-4 -1 0
2 0
4 0
3 -10 0
-5 -6 1 -3 -4 0
-10 -4 0
5 8 3 6 0
2 6 7 -4 9 0
9 5 -7 -1 0
-2 6 7 0
-5 -10 0
1 0
-4 0
-2 8 -6 10 0
-3 -6 -2 -8 -1 0
10 6 -7 -4 -9 0
-8 -5 -4 -2 -7 0
-3 0
2 5 0
-9 8 2 0
4 2 1 -5 0
10 3 -4 0
-9 0
-3 0
-9 3 5 0
-2 3 5 0
6 -9 0
2 3 -6 8 -10 0
4 5 0
-6 -1 0
-10 -1 5 0
7 -8 6 0
-9 -6 7 1 -4 0
8 0
4 0
1 0
